n = 21;
k = 2;
roles = [
{m, g},
{g, f},
{f, m},
{g, d},
{f, g},
{d, f},
{f, m},
{g, f},
{m, f},
{m, d},
{f, d},
{g, m},
{f, d},
{f, m},
{f, m},
{g, m},
{f, g},
{m, g},
{f, g},
{m, g},
{g, m}
];
num_pairs = 1;
player1 = [13];
player2 = [11];
